c SAT problem
p wcnf 48 197
1 60 -3150 0
1 60 3120 0
1 60 3165 0
1 60 3135 0
1 90 -3105 0
1 90 -3075 0
1 90 -105 0
1 90 -3120 0
1 -90 3135 0
1 -105 -3105 0
1 -105 -3075 0
1 105 -3150 0
1 -105 3120 0
1 3120 -196 0
1 -3120 -105 0
1 3120 -3121 0
1 3120 181 0
1 3120 -120 0
1 3120 90 0
1 -3120 60 0
1 -3135 -3136 0
1 -3135 165 0
1 -3135 -3120 0
1 -3135 120 0
1 -3135 90 0
1 -3135 60 0
1 3150 -136 0
1 -3150 105 0
1 3150 75 0
1 -3150 -3151 0
1 -3150 151 0
1 3150 -60 0
1 3165 -196 0
1 3165 105 0
1 -3165 -3150 0
1 3165 -121 0
1 3165 3166 0
1 -120 -3105 0
1 -120 135 0
1 135 3075 0
1 -135 -3120 0
1 -135 -3060 0
1 135 120 0
1 -150 -3105 0
1 150 -165 0
1 150 -3015 0
1 150 3120 0
1 -150 3060 0
1 -150 -3030 0
1 -150 3000 0
1 165 -3105 0
1 165 -3075 0
1 -165 3000 0
1 -165 3135 0
1 -3060 -165 0
1 -3060 240 0
1 3060 210 0
1 -3075 105 0
1 -3075 -240 0
1 3075 -210 0
1 -3075 3060 0
1 -3075 150 0
1 3075 90 0
1 -3075 -255 0
1 -3090 3105 0
1 3090 196 0
1 3090 -165 0
1 -3090 -135 0
1 3090 105 0
1 -3090 -211 0
1 3090 -181 0
1 3090 -150 0
1 3105 -240 0
1 -3105 -120 0
1 -3105 -255 0
1 -180 3075 0
1 -180 3000 0
1 195 3075 0
1 -195 -3045 0
1 195 180 0
1 -195 -3030 0
1 195 3000 0
1 210 -3045 0
1 210 211 0
1 -210 -3060 0
1 -3000 -165 0
1 -3000 -210 0
1 -3000 -180 0
1 3015 -225 0
1 3015 210 0
1 -3015 180 0
1 -3030 -3045 0
1 3030 -180 0
1 -3030 -150 0
1 -3030 -285 0
1 3045 -225 0
1 3045 -165 0
1 -3045 240 0
1 -3045 150 0
1 3045 -3030 0
1 121 -3270 0
1 121 3240 0
1 136 -3240 0
1 -136 -3255 0
1 -151 -166 0
1 -151 3240 0
1 -151 -3210 0
1 -151 3285 0
1 151 150 0
1 151 3255 0
1 151 -3195 0
1 -151 -3165 0
1 166 -165 0
1 -166 3270 0
1 -166 -3210 0
1 166 -3285 0
1 166 -3165 0
1 -3240 -3255 0
1 -3240 196 0
1 -3240 211 0
1 -3240 -181 0
1 3240 151 0
1 3240 121 0
1 -3255 196 0
1 -3255 3240 0
1 3255 181 0
1 3255 151 0
1 3255 121 0
1 -3270 -151 0
1 3285 -166 0
1 -3285 3270 0
1 3285 121 0
1 181 196 0
1 -181 -180 0
1 181 3195 0
1 -181 3165 0
1 196 -3105 0
1 196 -3240 0
1 -196 3210 0
1 -196 -3225 0
1 196 3195 0
1 -211 226 0
1 -211 3121 0
1 211 -3090 0
1 -211 -210 0
1 -211 3225 0
1 211 -3166 0
1 -226 -3105 0
1 226 -3240 0
1 226 -3180 0
1 -226 -3121 0
1 226 -3090 0
1 226 3225 0
1 -226 3195 0
1 3180 196 0
1 3180 270 0
1 3180 211 0
1 3180 285 0
1 -3180 255 0
1 -3195 -270 0
1 -3195 -151 0
1 3195 -255 0
1 3210 -226 0
1 3225 -166 0
1 -3225 211 0
1 -240 3045 0
1 -240 -3151 0
1 -240 -3060 0
1 -240 -3030 0
1 -240 -3166 0
1 -240 -255 0
1 -255 3105 0
1 -255 -3075 0
1 255 3180 0
1 -255 -3151 0
1 -255 -240 0
1 255 3090 0
1 255 3060 0
1 -270 -3151 0
1 270 -3121 0
1 270 -3166 0
1 -285 270 0
1 285 -3166 0
1 -285 3195 0
1 3121 226 0
1 -3121 -270 0
1 3121 -240 0
1 -3121 3120 0
1 3121 255 0
1 3136 -270 0
1 -3136 -3121 0
1 3136 -211 0
1 -3136 285 0
1 3151 226 0
1 -3151 270 0
1 -3151 211 0
1 3166 -226 0
